DIMENSION: 12
EDGE_WEIGHT_TYPE: EXPLICIT
EDGE_WEIGHT_FORMAT: FULL_MATRIX
EDGE_WEIGHT_SECTION:
32767 60 32767 32767 75 32767 83 24 32767 99 100 87 
60 32767 32767 12 42 32767 33 32767 32767 32767 13 100 
32767 32767 32767 14 27 70 21 40 91 58 32767 49 
32767 12 14 32767 6 95 32767 79 32767 18 51 32767 
75 42 27 6 32767 32767 32767 32767 32767 62 42 31 
32767 32767 70 95 32767 32767 91 37 59 100 36 6 
83 33 21 32767 32767 91 32767 79 26 53 18 32767 
24 32767 40 79 32767 37 79 32767 32767 29 32767 42 
32767 32767 91 32767 32767 59 26 32767 32767 32767 32767 32767 
99 32767 58 18 62 100 53 29 32767 32767 32767 18 
100 13 32767 51 42 36 18 32767 32767 32767 32767 14 
87 100 49 32767 31 6 32767 42 32767 18 14 32767 
EOF